(set-logic QF_NRA)
(set-info :source |Benchmarks generated from hycomp (https://es-static.fbk.eu/tools/hycomp/). BMC instances of non-linear hybrid automata taken from: Alessandro Cimatti, Sergio Mover, Stefano Tonetta, A quantifier-free SMT encoding of non-linear hybrid automata, FMCAD 2012 and Alessandro Cimatti, Sergio Mover, Stefano Tonetta, Quantier-free encoding of invariants for Hybrid Systems, Formal Methods in System Design. This instance solves a BMC problem of depth 2 and uses the quantifier free encoding with lemmas encoding. Contacts: Sergio Mover (mover@fbk.eu), Stefano Tonetta (tonettas@fbk.eu), Alessandro Cimatti (cimatti@fbk.eu).|)
(set-info :smt-lib-version 2.0)
(set-info :category "industrial")
(set-info :status unsat)
;; MathSAT API call trace
;; generated on Mon Mar 19 10:49:12 2012
(declare-fun b.counter.3__AT1 () Bool)
(declare-fun b.EVENT.0__AT2 () Bool)
(declare-fun b.counter.1__AT2 () Bool)
(declare-fun b.EVENT.1__AT0 () Bool)
(declare-fun b.x__AT0 () Real)
(declare-fun b.EVENT.1__AT2 () Bool)
(declare-fun b.counter.2__AT2 () Bool)
(declare-fun b.speed_x__AT1 () Real)
(declare-fun b.counter.3__AT2 () Bool)
(declare-fun b.time__AT1 () Real)
(declare-fun g__AT0 () Real)
(declare-fun b.y__AT0 () Real)
(declare-fun b.EVENT.0__AT1 () Bool)
(declare-fun b.speed_y__AT1 () Real)
(declare-fun b.delta__AT1 () Real)
(declare-fun b.counter.0__AT0 () Bool)
(declare-fun b.EVENT.1__AT1 () Bool)
(declare-fun b.speed_x__AT2 () Real)
(declare-fun b.counter.1__AT0 () Bool)
(declare-fun b.delta__AT0 () Real)
(declare-fun b.speed_y__AT2 () Real)
(declare-fun b.EVENT.0__AT0 () Bool)
(declare-fun b.x__AT1 () Real)
(declare-fun b.speed_y__AT0 () Real)
(declare-fun b.counter.3__AT0 () Bool)
(declare-fun b.event_is_timed__AT0 () Bool)
(declare-fun b.event_is_timed__AT2 () Bool)
(declare-fun speed_loss__AT0 () Real)
(declare-fun b.y__AT1 () Real)
(declare-fun b.event_is_timed__AT1 () Bool)
(declare-fun b.counter.0__AT1 () Bool)
(declare-fun b.speed_x__AT0 () Real)
(declare-fun b.counter.1__AT1 () Bool)
(declare-fun b.time__AT2 () Real)
(declare-fun b.time__AT0 () Real)
(declare-fun b.y__AT2 () Real)
(declare-fun b.counter.2__AT0 () Bool)
(declare-fun b.counter.2__AT1 () Bool)
(declare-fun b.delta__AT2 () Real)
(declare-fun b.counter.0__AT2 () Bool)
(declare-fun b.x__AT2 () Real)
(assert (let ((.def_82 (* (- 1.0) g__AT0)))
(let ((.def_83 (* (/ 1 2) .def_82)))
(let ((.def_90 (* 2.0 .def_83)))
(let ((.def_134 (* (- 1.0) .def_90)))
(let ((.def_602 (* .def_134 b.delta__AT2)))
(let ((.def_605 (<= .def_602 b.speed_y__AT2)))
(let ((.def_612 (not .def_605)))
(let ((.def_565 (<= 0.0 b.speed_y__AT2)))
(let ((.def_613 (or .def_565 .def_612)))
(let ((.def_603 (<= b.speed_y__AT2 .def_602)))
(let ((.def_579 (<= b.speed_y__AT2 0.0 )))
(let ((.def_580 (not .def_579)))
(let ((.def_611 (or .def_580 .def_603)))
(let ((.def_614 (and .def_611 .def_613)))
(let ((.def_125 (<= g__AT0 0.0 )))
(let ((.def_615 (or .def_125 .def_614)))
(let ((.def_607 (not .def_603)))
(let ((.def_608 (or .def_579 .def_607)))
(let ((.def_566 (not .def_565)))
(let ((.def_606 (or .def_566 .def_605)))
(let ((.def_609 (and .def_606 .def_608)))
(let ((.def_130 (<= 0.0 g__AT0)))
(let ((.def_610 (or .def_130 .def_609)))
(let ((.def_616 (and .def_610 .def_615)))
(let ((.def_604 (and .def_579 .def_603)))
(let ((.def_617 (and .def_604 .def_616)))
(let ((.def_561 (* .def_90 b.delta__AT2)))
(let ((.def_562 (+ b.speed_y__AT2 .def_561)))
(let ((.def_577 (<= .def_562 0.0 )))
(let ((.def_578 (not .def_577)))
(let ((.def_597 (or .def_578 .def_579)))
(let ((.def_563 (<= 0.0 .def_562)))
(let ((.def_596 (or .def_563 .def_566)))
(let ((.def_598 (and .def_596 .def_597)))
(let ((.def_599 (or .def_130 .def_598)))
(let ((.def_564 (not .def_563)))
(let ((.def_593 (or .def_564 .def_565)))
(let ((.def_592 (or .def_577 .def_580)))
(let ((.def_594 (and .def_592 .def_593)))
(let ((.def_595 (or .def_125 .def_594)))
(let ((.def_600 (and .def_595 .def_599)))
(let ((.def_591 (and .def_563 .def_565)))
(let ((.def_601 (and .def_591 .def_600)))
(let ((.def_618 (or .def_601 .def_617)))
(let ((.def_556 (* b.speed_y__AT2 b.delta__AT2)))
(let ((.def_554 (* b.delta__AT2 b.delta__AT2)))
(let ((.def_555 (* .def_83 .def_554)))
(let ((.def_557 (+ .def_555 .def_556)))
(let ((.def_558 (+ b.y__AT2 .def_557)))
(let ((.def_571 (<= .def_558 0.0 )))
(let ((.def_585 (not .def_571)))
(let ((.def_569 (<= b.y__AT2 0.0 )))
(let ((.def_586 (or .def_569 .def_585)))
(let ((.def_536 (<= 0.0 b.y__AT2)))
(let ((.def_583 (not .def_536)))
(let ((.def_559 (<= 0.0 .def_558)))
(let ((.def_584 (or .def_559 .def_583)))
(let ((.def_587 (and .def_584 .def_586)))
(let ((.def_581 (or .def_578 .def_580)))
(let ((.def_582 (not .def_581)))
(let ((.def_588 (or .def_582 .def_587)))
(let ((.def_573 (not .def_559)))
(let ((.def_574 (or .def_536 .def_573)))
(let ((.def_570 (not .def_569)))
(let ((.def_572 (or .def_570 .def_571)))
(let ((.def_575 (and .def_572 .def_574)))
(let ((.def_567 (or .def_564 .def_566)))
(let ((.def_568 (not .def_567)))
(let ((.def_576 (or .def_568 .def_575)))
(let ((.def_589 (and .def_576 .def_588)))
(let ((.def_560 (and .def_536 .def_559)))
(let ((.def_590 (and .def_560 .def_589)))
(let ((.def_619 (and .def_590 .def_618)))
(let ((.def_63 (<= g__AT0 10.0 )))
(let ((.def_62 (<= 8.0 g__AT0)))
(let ((.def_64 (and .def_62 .def_63)))
(let ((.def_620 (and .def_64 .def_619)))
(let ((.def_71 (<= speed_loss__AT0 (/ 1 2))))
(let ((.def_68 (<= (/ 1 10) speed_loss__AT0)))
(let ((.def_72 (and .def_68 .def_71)))
(let ((.def_621 (and .def_72 .def_620)))
(let ((.def_209 (not b.counter.0__AT1)))
(let ((.def_546 (or b.counter.1__AT1 .def_209)))
(let ((.def_547 (or b.counter.2__AT1 .def_546)))
(let ((.def_197 (not b.counter.1__AT1)))
(let ((.def_541 (and .def_197 .def_209)))
(let ((.def_204 (not b.counter.2__AT1)))
(let ((.def_545 (or .def_204 .def_541)))
(let ((.def_548 (and .def_545 .def_547)))
(let ((.def_549 (or b.counter.3__AT1 .def_548)))
(let ((.def_542 (or b.counter.2__AT1 .def_541)))
(let ((.def_540 (or .def_197 .def_204)))
(let ((.def_543 (and .def_540 .def_542)))
(let ((.def_219 (not b.counter.3__AT1)))
(let ((.def_544 (or .def_219 .def_543)))
(let ((.def_550 (and .def_544 .def_549)))
(let ((.def_73 (and .def_64 .def_72)))
(let ((.def_537 (and .def_73 .def_536)))
(let ((.def_533 (not b.EVENT.0__AT2)))
(let ((.def_531 (not b.EVENT.1__AT2)))
(let ((.def_534 (or .def_531 .def_533)))
(let ((.def_9 (not b.counter.0__AT2)))
(let ((.def_6 (not b.counter.1__AT2)))
(let ((.def_524 (or .def_6 .def_9)))
(let ((.def_528 (or b.counter.3__AT2 .def_524)))
(let ((.def_525 (or b.counter.2__AT2 .def_524)))
(let ((.def_4 (not b.counter.2__AT2)))
(let ((.def_523 (or .def_4 .def_9)))
(let ((.def_526 (and .def_523 .def_525)))
(let ((.def_14 (not b.counter.3__AT2)))
(let ((.def_527 (or .def_14 .def_526)))
(let ((.def_529 (and .def_527 .def_528)))
(let ((.def_535 (and .def_529 .def_534)))
(let ((.def_538 (and .def_535 .def_537)))
(let ((.def_518 (<= 0.0 b.delta__AT1)))
(let ((.def_307 (not b.EVENT.0__AT1)))
(let ((.def_305 (not b.EVENT.1__AT1)))
(let ((.def_422 (and .def_305 .def_307)))
(let ((.def_423 (not .def_422)))
(let ((.def_519 (or .def_423 .def_518)))
(let ((.def_520 (or b.EVENT.1__AT1 .def_519)))
(let ((.def_467 (= b.counter.0__AT2 b.counter.0__AT1)))
(let ((.def_465 (= b.counter.1__AT2 b.counter.1__AT1)))
(let ((.def_463 (= b.counter.2__AT2 b.counter.2__AT1)))
(let ((.def_462 (= b.counter.3__AT2 b.counter.3__AT1)))
(let ((.def_464 (and .def_462 .def_463)))
(let ((.def_466 (and .def_464 .def_465)))
(let ((.def_468 (and .def_466 .def_467)))
(let ((.def_515 (or .def_423 .def_468)))
(let ((.def_516 (or b.EVENT.1__AT1 .def_515)))
(let ((.def_475 (= b.x__AT1 b.x__AT2)))
(let ((.def_472 (= b.y__AT1 b.y__AT2)))
(let ((.def_509 (and .def_472 .def_475)))
(let ((.def_403 (= b.speed_x__AT1 b.speed_x__AT2)))
(let ((.def_510 (and .def_403 .def_509)))
(let ((.def_461 (= b.speed_y__AT1 b.speed_y__AT2)))
(let ((.def_511 (and .def_461 .def_510)))
(let ((.def_506 (= b.delta__AT1 0.0 )))
(let ((.def_507 (and .def_422 .def_506)))
(let ((.def_508 (not .def_507)))
(let ((.def_512 (or .def_508 .def_511)))
(let ((.def_513 (or b.EVENT.1__AT1 .def_512)))
(let ((.def_486 (= b.time__AT1 b.time__AT2)))
(let ((.def_498 (and .def_475 .def_486)))
(let ((.def_499 (and .def_472 .def_498)))
(let ((.def_500 (and .def_403 .def_499)))
(let ((.def_501 (and .def_461 .def_500)))
(let ((.def_502 (and .def_468 .def_501)))
(let ((.def_503 (or .def_305 .def_502)))
(let ((.def_489 (* (- 1.0) b.time__AT2)))
(let ((.def_492 (+ b.delta__AT1 .def_489)))
(let ((.def_493 (+ b.time__AT1 .def_492)))
(let ((.def_494 (= .def_493 0.0 )))
(let ((.def_495 (or .def_423 .def_494)))
(let ((.def_496 (or b.EVENT.1__AT1 .def_495)))
(let ((.def_487 (or .def_422 .def_486)))
(let ((.def_488 (or b.EVENT.1__AT1 .def_487)))
(let ((.def_497 (and .def_488 .def_496)))
(let ((.def_504 (and .def_497 .def_503)))
(let ((.def_482 (= .def_423 b.event_is_timed__AT2)))
(let ((.def_480 (= b.event_is_timed__AT1 .def_422)))
(let ((.def_483 (and .def_480 .def_482)))
(let ((.def_469 (and .def_461 .def_468)))
(let ((.def_425 (= b.y__AT1 0.0 )))
(let ((.def_338 (<= 0.0 b.speed_y__AT1)))
(let ((.def_339 (not .def_338)))
(let ((.def_426 (and .def_339 .def_425)))
(let ((.def_470 (or .def_426 .def_469)))
(let ((.def_438 (or .def_9 b.counter.0__AT1)))
(let ((.def_437 (or b.counter.0__AT2 .def_209)))
(let ((.def_439 (and .def_437 .def_438)))
(let ((.def_440 (and .def_6 .def_439)))
(let ((.def_441 (or b.counter.1__AT1 .def_440)))
(let ((.def_436 (or b.counter.1__AT2 .def_197)))
(let ((.def_442 (and .def_436 .def_441)))
(let ((.def_453 (and .def_4 .def_442)))
(let ((.def_454 (or b.counter.2__AT1 .def_453)))
(let ((.def_448 (and .def_6 .def_209)))
(let ((.def_449 (or b.counter.1__AT1 .def_448)))
(let ((.def_450 (and .def_436 .def_449)))
(let ((.def_451 (and b.counter.2__AT2 .def_450)))
(let ((.def_452 (or .def_204 .def_451)))
(let ((.def_455 (and .def_452 .def_454)))
(let ((.def_456 (and b.counter.3__AT2 .def_455)))
(let ((.def_457 (or b.counter.3__AT1 .def_456)))
(let ((.def_443 (and b.counter.2__AT2 .def_442)))
(let ((.def_444 (or b.counter.2__AT1 .def_443)))
(let ((.def_432 (or b.counter.1__AT2 b.counter.1__AT1)))
(let ((.def_430 (and .def_6 b.counter.0__AT2)))
(let ((.def_431 (or .def_197 .def_430)))
(let ((.def_433 (and .def_431 .def_432)))
(let ((.def_434 (and .def_4 .def_433)))
(let ((.def_435 (or .def_204 .def_434)))
(let ((.def_445 (and .def_435 .def_444)))
(let ((.def_446 (and .def_14 .def_445)))
(let ((.def_447 (or .def_219 .def_446)))
(let ((.def_458 (and .def_447 .def_457)))
(let ((.def_191 (* (- 1.0) speed_loss__AT0)))
(let ((.def_192 (+ 1.0 .def_191)))
(let ((.def_171 (* (- 1.0) b.speed_y__AT1)))
(let ((.def_428 (* .def_171 .def_192)))
(let ((.def_429 (= b.speed_y__AT2 .def_428)))
(let ((.def_459 (and .def_429 .def_458)))
(let ((.def_427 (not .def_426)))
(let ((.def_460 (or .def_427 .def_459)))
(let ((.def_471 (and .def_460 .def_470)))
(let ((.def_473 (and .def_471 .def_472)))
(let ((.def_474 (and .def_403 .def_473)))
(let ((.def_476 (and .def_474 .def_475)))
(let ((.def_477 (or .def_422 .def_476)))
(let ((.def_478 (or b.EVENT.1__AT1 .def_477)))
(let ((.def_413 (* (- 1.0) b.y__AT2)))
(let ((.def_329 (* b.speed_y__AT1 b.delta__AT1)))
(let ((.def_417 (+ .def_329 .def_413)))
(let ((.def_327 (* b.delta__AT1 b.delta__AT1)))
(let ((.def_328 (* .def_83 .def_327)))
(let ((.def_418 (+ .def_328 .def_417)))
(let ((.def_419 (+ b.y__AT1 .def_418)))
(let ((.def_420 (= .def_419 0.0 )))
(let ((.def_407 (* (- 1.0) b.speed_y__AT2)))
(let ((.def_405 (* .def_82 b.delta__AT1)))
(let ((.def_408 (+ .def_405 .def_407)))
(let ((.def_409 (+ b.speed_y__AT1 .def_408)))
(let ((.def_410 (= .def_409 0.0 )))
(let ((.def_398 (* (- 1.0) b.x__AT2)))
(let ((.def_396 (* b.speed_x__AT1 b.delta__AT1)))
(let ((.def_399 (+ .def_396 .def_398)))
(let ((.def_400 (+ b.x__AT1 .def_399)))
(let ((.def_401 (= .def_400 0.0 )))
(let ((.def_404 (and .def_401 .def_403)))
(let ((.def_411 (and .def_404 .def_410)))
(let ((.def_421 (and .def_411 .def_420)))
(let ((.def_424 (or .def_421 .def_423)))
(let ((.def_479 (and .def_424 .def_478)))
(let ((.def_484 (and .def_479 .def_483)))
(let ((.def_505 (and .def_484 .def_504)))
(let ((.def_514 (and .def_505 .def_513)))
(let ((.def_517 (and .def_514 .def_516)))
(let ((.def_521 (and .def_517 .def_520)))
(let ((.def_522 (and .def_305 .def_521)))
(let ((.def_539 (and .def_522 .def_538)))
(let ((.def_551 (and .def_539 .def_550)))
(let ((.def_375 (* .def_134 b.delta__AT1)))
(let ((.def_378 (<= .def_375 b.speed_y__AT1)))
(let ((.def_385 (not .def_378)))
(let ((.def_386 (or .def_338 .def_385)))
(let ((.def_376 (<= b.speed_y__AT1 .def_375)))
(let ((.def_352 (<= b.speed_y__AT1 0.0 )))
(let ((.def_353 (not .def_352)))
(let ((.def_384 (or .def_353 .def_376)))
(let ((.def_387 (and .def_384 .def_386)))
(let ((.def_388 (or .def_125 .def_387)))
(let ((.def_380 (not .def_376)))
(let ((.def_381 (or .def_352 .def_380)))
(let ((.def_379 (or .def_339 .def_378)))
(let ((.def_382 (and .def_379 .def_381)))
(let ((.def_383 (or .def_130 .def_382)))
(let ((.def_389 (and .def_383 .def_388)))
(let ((.def_377 (and .def_352 .def_376)))
(let ((.def_390 (and .def_377 .def_389)))
(let ((.def_334 (* .def_90 b.delta__AT1)))
(let ((.def_335 (+ b.speed_y__AT1 .def_334)))
(let ((.def_350 (<= .def_335 0.0 )))
(let ((.def_351 (not .def_350)))
(let ((.def_370 (or .def_351 .def_352)))
(let ((.def_336 (<= 0.0 .def_335)))
(let ((.def_369 (or .def_336 .def_339)))
(let ((.def_371 (and .def_369 .def_370)))
(let ((.def_372 (or .def_130 .def_371)))
(let ((.def_337 (not .def_336)))
(let ((.def_366 (or .def_337 .def_338)))
(let ((.def_365 (or .def_350 .def_353)))
(let ((.def_367 (and .def_365 .def_366)))
(let ((.def_368 (or .def_125 .def_367)))
(let ((.def_373 (and .def_368 .def_372)))
(let ((.def_364 (and .def_336 .def_338)))
(let ((.def_374 (and .def_364 .def_373)))
(let ((.def_391 (or .def_374 .def_390)))
(let ((.def_330 (+ .def_328 .def_329)))
(let ((.def_331 (+ b.y__AT1 .def_330)))
(let ((.def_344 (<= .def_331 0.0 )))
(let ((.def_358 (not .def_344)))
(let ((.def_342 (<= b.y__AT1 0.0 )))
(let ((.def_359 (or .def_342 .def_358)))
(let ((.def_310 (<= 0.0 b.y__AT1)))
(let ((.def_356 (not .def_310)))
(let ((.def_332 (<= 0.0 .def_331)))
(let ((.def_357 (or .def_332 .def_356)))
(let ((.def_360 (and .def_357 .def_359)))
(let ((.def_354 (or .def_351 .def_353)))
(let ((.def_355 (not .def_354)))
(let ((.def_361 (or .def_355 .def_360)))
(let ((.def_346 (not .def_332)))
(let ((.def_347 (or .def_310 .def_346)))
(let ((.def_343 (not .def_342)))
(let ((.def_345 (or .def_343 .def_344)))
(let ((.def_348 (and .def_345 .def_347)))
(let ((.def_340 (or .def_337 .def_339)))
(let ((.def_341 (not .def_340)))
(let ((.def_349 (or .def_341 .def_348)))
(let ((.def_362 (and .def_349 .def_361)))
(let ((.def_333 (and .def_310 .def_332)))
(let ((.def_363 (and .def_333 .def_362)))
(let ((.def_392 (and .def_363 .def_391)))
(let ((.def_393 (and .def_64 .def_392)))
(let ((.def_394 (and .def_72 .def_393)))
(let ((.def_38 (not b.counter.0__AT0)))
(let ((.def_319 (or b.counter.1__AT0 .def_38)))
(let ((.def_320 (or b.counter.2__AT0 .def_319)))
(let ((.def_41 (not b.counter.2__AT0)))
(let ((.def_36 (not b.counter.1__AT0)))
(let ((.def_39 (and .def_36 .def_38)))
(let ((.def_318 (or .def_39 .def_41)))
(let ((.def_321 (and .def_318 .def_320)))
(let ((.def_322 (or b.counter.3__AT0 .def_321)))
(let ((.def_315 (or .def_39 b.counter.2__AT0)))
(let ((.def_314 (or .def_36 .def_41)))
(let ((.def_316 (and .def_314 .def_315)))
(let ((.def_44 (not b.counter.3__AT0)))
(let ((.def_317 (or .def_44 .def_316)))
(let ((.def_323 (and .def_317 .def_322)))
(let ((.def_311 (and .def_73 .def_310)))
(let ((.def_308 (or .def_305 .def_307)))
(let ((.def_298 (or .def_197 .def_209)))
(let ((.def_302 (or b.counter.3__AT1 .def_298)))
(let ((.def_299 (or b.counter.2__AT1 .def_298)))
(let ((.def_297 (or .def_204 .def_209)))
(let ((.def_300 (and .def_297 .def_299)))
(let ((.def_301 (or .def_219 .def_300)))
(let ((.def_303 (and .def_301 .def_302)))
(let ((.def_309 (and .def_303 .def_308)))
(let ((.def_312 (and .def_309 .def_311)))
(let ((.def_292 (<= 0.0 b.delta__AT0)))
(let ((.def_57 (not b.EVENT.0__AT0)))
(let ((.def_55 (not b.EVENT.1__AT0)))
(let ((.def_185 (and .def_55 .def_57)))
(let ((.def_186 (not .def_185)))
(let ((.def_293 (or .def_186 .def_292)))
(let ((.def_294 (or b.EVENT.1__AT0 .def_293)))
(let ((.def_241 (= b.counter.0__AT0 b.counter.0__AT1)))
(let ((.def_239 (= b.counter.1__AT0 b.counter.1__AT1)))
(let ((.def_237 (= b.counter.2__AT0 b.counter.2__AT1)))
(let ((.def_236 (= b.counter.3__AT0 b.counter.3__AT1)))
(let ((.def_238 (and .def_236 .def_237)))
(let ((.def_240 (and .def_238 .def_239)))
(let ((.def_242 (and .def_240 .def_241)))
(let ((.def_289 (or .def_186 .def_242)))
(let ((.def_290 (or b.EVENT.1__AT0 .def_289)))
(let ((.def_249 (= b.x__AT1 b.x__AT0)))
(let ((.def_246 (= b.y__AT0 b.y__AT1)))
(let ((.def_283 (and .def_246 .def_249)))
(let ((.def_167 (= b.speed_x__AT0 b.speed_x__AT1)))
(let ((.def_284 (and .def_167 .def_283)))
(let ((.def_235 (= b.speed_y__AT0 b.speed_y__AT1)))
(let ((.def_285 (and .def_235 .def_284)))
(let ((.def_280 (= b.delta__AT0 0.0 )))
(let ((.def_281 (and .def_185 .def_280)))
(let ((.def_282 (not .def_281)))
(let ((.def_286 (or .def_282 .def_285)))
(let ((.def_287 (or b.EVENT.1__AT0 .def_286)))
(let ((.def_260 (= b.time__AT0 b.time__AT1)))
(let ((.def_272 (and .def_249 .def_260)))
(let ((.def_273 (and .def_246 .def_272)))
(let ((.def_274 (and .def_167 .def_273)))
(let ((.def_275 (and .def_235 .def_274)))
(let ((.def_276 (and .def_242 .def_275)))
(let ((.def_277 (or .def_55 .def_276)))
(let ((.def_263 (* (- 1.0) b.time__AT1)))
(let ((.def_266 (+ b.delta__AT0 .def_263)))
(let ((.def_267 (+ b.time__AT0 .def_266)))
(let ((.def_268 (= .def_267 0.0 )))
(let ((.def_269 (or .def_186 .def_268)))
(let ((.def_270 (or b.EVENT.1__AT0 .def_269)))
(let ((.def_261 (or .def_185 .def_260)))
(let ((.def_262 (or b.EVENT.1__AT0 .def_261)))
(let ((.def_271 (and .def_262 .def_270)))
(let ((.def_278 (and .def_271 .def_277)))
(let ((.def_256 (= .def_186 b.event_is_timed__AT1)))
(let ((.def_254 (= b.event_is_timed__AT0 .def_185)))
(let ((.def_257 (and .def_254 .def_256)))
(let ((.def_243 (and .def_235 .def_242)))
(let ((.def_188 (= b.y__AT0 0.0 )))
(let ((.def_95 (<= 0.0 b.speed_y__AT0)))
(let ((.def_96 (not .def_95)))
(let ((.def_189 (and .def_96 .def_188)))
(let ((.def_244 (or .def_189 .def_243)))
(let ((.def_210 (or b.counter.0__AT0 .def_209)))
(let ((.def_208 (or .def_38 b.counter.0__AT1)))
(let ((.def_211 (and .def_208 .def_210)))
(let ((.def_212 (and .def_197 .def_211)))
(let ((.def_213 (or b.counter.1__AT0 .def_212)))
(let ((.def_207 (or .def_36 b.counter.1__AT1)))
(let ((.def_214 (and .def_207 .def_213)))
(let ((.def_227 (and .def_204 .def_214)))
(let ((.def_228 (or b.counter.2__AT0 .def_227)))
(let ((.def_222 (and .def_38 .def_197)))
(let ((.def_223 (or b.counter.1__AT0 .def_222)))
(let ((.def_224 (and .def_207 .def_223)))
(let ((.def_225 (and b.counter.2__AT1 .def_224)))
(let ((.def_226 (or .def_41 .def_225)))
(let ((.def_229 (and .def_226 .def_228)))
(let ((.def_230 (and b.counter.3__AT1 .def_229)))
(let ((.def_231 (or b.counter.3__AT0 .def_230)))
(let ((.def_215 (and b.counter.2__AT1 .def_214)))
(let ((.def_216 (or b.counter.2__AT0 .def_215)))
(let ((.def_201 (or b.counter.1__AT0 b.counter.1__AT1)))
(let ((.def_199 (and .def_197 b.counter.0__AT1)))
(let ((.def_200 (or .def_36 .def_199)))
(let ((.def_202 (and .def_200 .def_201)))
(let ((.def_205 (and .def_202 .def_204)))
(let ((.def_206 (or .def_41 .def_205)))
(let ((.def_217 (and .def_206 .def_216)))
(let ((.def_220 (and .def_217 .def_219)))
(let ((.def_221 (or .def_44 .def_220)))
(let ((.def_232 (and .def_221 .def_231)))
(let ((.def_193 (* (- 1.0) b.speed_y__AT0)))
(let ((.def_194 (* .def_192 .def_193)))
(let ((.def_195 (= b.speed_y__AT1 .def_194)))
(let ((.def_233 (and .def_195 .def_232)))
(let ((.def_190 (not .def_189)))
(let ((.def_234 (or .def_190 .def_233)))
(let ((.def_245 (and .def_234 .def_244)))
(let ((.def_247 (and .def_245 .def_246)))
(let ((.def_248 (and .def_167 .def_247)))
(let ((.def_250 (and .def_248 .def_249)))
(let ((.def_251 (or .def_185 .def_250)))
(let ((.def_252 (or b.EVENT.1__AT0 .def_251)))
(let ((.def_177 (* (- 1.0) b.y__AT1)))
(let ((.def_85 (* b.speed_y__AT0 b.delta__AT0)))
(let ((.def_180 (+ .def_85 .def_177)))
(let ((.def_80 (* b.delta__AT0 b.delta__AT0)))
(let ((.def_84 (* .def_80 .def_83)))
(let ((.def_181 (+ .def_84 .def_180)))
(let ((.def_182 (+ b.y__AT0 .def_181)))
(let ((.def_183 (= .def_182 0.0 )))
(let ((.def_169 (* b.delta__AT0 .def_82)))
(let ((.def_172 (+ .def_169 .def_171)))
(let ((.def_173 (+ b.speed_y__AT0 .def_172)))
(let ((.def_174 (= .def_173 0.0 )))
(let ((.def_159 (* (- 1.0) b.x__AT1)))
(let ((.def_163 (+ .def_159 b.x__AT0)))
(let ((.def_157 (* b.delta__AT0 b.speed_x__AT0)))
(let ((.def_164 (+ .def_157 .def_163)))
(let ((.def_165 (= .def_164 0.0 )))
(let ((.def_168 (and .def_165 .def_167)))
(let ((.def_175 (and .def_168 .def_174)))
(let ((.def_184 (and .def_175 .def_183)))
(let ((.def_187 (or .def_184 .def_186)))
(let ((.def_253 (and .def_187 .def_252)))
(let ((.def_258 (and .def_253 .def_257)))
(let ((.def_279 (and .def_258 .def_278)))
(let ((.def_288 (and .def_279 .def_287)))
(let ((.def_291 (and .def_288 .def_290)))
(let ((.def_295 (and .def_291 .def_294)))
(let ((.def_296 (and .def_55 .def_295)))
(let ((.def_313 (and .def_296 .def_312)))
(let ((.def_324 (and .def_313 .def_323)))
(let ((.def_135 (* b.delta__AT0 .def_134)))
(let ((.def_138 (<= .def_135 b.speed_y__AT0)))
(let ((.def_145 (not .def_138)))
(let ((.def_146 (or .def_95 .def_145)))
(let ((.def_136 (<= b.speed_y__AT0 .def_135)))
(let ((.def_109 (<= b.speed_y__AT0 0.0 )))
(let ((.def_110 (not .def_109)))
(let ((.def_144 (or .def_110 .def_136)))
(let ((.def_147 (and .def_144 .def_146)))
(let ((.def_148 (or .def_125 .def_147)))
(let ((.def_140 (not .def_136)))
(let ((.def_141 (or .def_109 .def_140)))
(let ((.def_139 (or .def_96 .def_138)))
(let ((.def_142 (and .def_139 .def_141)))
(let ((.def_143 (or .def_130 .def_142)))
(let ((.def_149 (and .def_143 .def_148)))
(let ((.def_137 (and .def_109 .def_136)))
(let ((.def_150 (and .def_137 .def_149)))
(let ((.def_91 (* b.delta__AT0 .def_90)))
(let ((.def_92 (+ b.speed_y__AT0 .def_91)))
(let ((.def_107 (<= .def_92 0.0 )))
(let ((.def_108 (not .def_107)))
(let ((.def_128 (or .def_108 .def_109)))
(let ((.def_93 (<= 0.0 .def_92)))
(let ((.def_127 (or .def_93 .def_96)))
(let ((.def_129 (and .def_127 .def_128)))
(let ((.def_131 (or .def_129 .def_130)))
(let ((.def_94 (not .def_93)))
(let ((.def_123 (or .def_94 .def_95)))
(let ((.def_122 (or .def_107 .def_110)))
(let ((.def_124 (and .def_122 .def_123)))
(let ((.def_126 (or .def_124 .def_125)))
(let ((.def_132 (and .def_126 .def_131)))
(let ((.def_121 (and .def_93 .def_95)))
(let ((.def_133 (and .def_121 .def_132)))
(let ((.def_151 (or .def_133 .def_150)))
(let ((.def_86 (+ .def_84 .def_85)))
(let ((.def_87 (+ b.y__AT0 .def_86)))
(let ((.def_101 (<= .def_87 0.0 )))
(let ((.def_115 (not .def_101)))
(let ((.def_99 (<= b.y__AT0 0.0 )))
(let ((.def_116 (or .def_99 .def_115)))
(let ((.def_74 (<= 0.0 b.y__AT0)))
(let ((.def_113 (not .def_74)))
(let ((.def_88 (<= 0.0 .def_87)))
(let ((.def_114 (or .def_88 .def_113)))
(let ((.def_117 (and .def_114 .def_116)))
(let ((.def_111 (or .def_108 .def_110)))
(let ((.def_112 (not .def_111)))
(let ((.def_118 (or .def_112 .def_117)))
(let ((.def_103 (not .def_88)))
(let ((.def_104 (or .def_74 .def_103)))
(let ((.def_100 (not .def_99)))
(let ((.def_102 (or .def_100 .def_101)))
(let ((.def_105 (and .def_102 .def_104)))
(let ((.def_97 (or .def_94 .def_96)))
(let ((.def_98 (not .def_97)))
(let ((.def_106 (or .def_98 .def_105)))
(let ((.def_119 (and .def_106 .def_118)))
(let ((.def_89 (and .def_74 .def_88)))
(let ((.def_120 (and .def_89 .def_119)))
(let ((.def_152 (and .def_120 .def_151)))
(let ((.def_153 (and .def_64 .def_152)))
(let ((.def_154 (and .def_72 .def_153)))
(let ((.def_75 (and .def_73 .def_74)))
(let ((.def_58 (or .def_55 .def_57)))
(let ((.def_48 (or .def_36 .def_38)))
(let ((.def_52 (or b.counter.3__AT0 .def_48)))
(let ((.def_49 (or b.counter.2__AT0 .def_48)))
(let ((.def_47 (or .def_38 .def_41)))
(let ((.def_50 (and .def_47 .def_49)))
(let ((.def_51 (or .def_44 .def_50)))
(let ((.def_53 (and .def_51 .def_52)))
(let ((.def_59 (and .def_53 .def_58)))
(let ((.def_76 (and .def_59 .def_75)))
(let ((.def_42 (and .def_39 .def_41)))
(let ((.def_45 (and .def_42 .def_44)))
(let ((.def_33 (= b.speed_y__AT0 0.0 )))
(let ((.def_30 (= b.y__AT0 10.0 )))
(let ((.def_25 (= b.time__AT0 0.0 )))
(let ((.def_27 (and .def_25 b.event_is_timed__AT0)))
(let ((.def_31 (and .def_27 .def_30)))
(let ((.def_34 (and .def_31 .def_33)))
(let ((.def_46 (and .def_34 .def_45)))
(let ((.def_77 (and .def_46 .def_76)))
(let ((.def_17 (or b.counter.1__AT2 .def_9)))
(let ((.def_18 (or b.counter.2__AT2 .def_17)))
(let ((.def_10 (and .def_6 .def_9)))
(let ((.def_16 (or .def_4 .def_10)))
(let ((.def_19 (and .def_16 .def_18)))
(let ((.def_20 (or b.counter.3__AT2 .def_19)))
(let ((.def_11 (or b.counter.2__AT2 .def_10)))
(let ((.def_7 (or .def_4 .def_6)))
(let ((.def_12 (and .def_7 .def_11)))
(let ((.def_15 (or .def_12 .def_14)))
(let ((.def_21 (and .def_15 .def_20)))
(let ((.def_22 (not .def_21)))
(let ((.def_78 (and .def_22 .def_77)))
(let ((.def_155 (and .def_78 .def_154)))
(let ((.def_325 (and .def_155 .def_324)))
(let ((.def_395 (and .def_325 .def_394)))
(let ((.def_552 (and .def_395 .def_551)))
(let ((.def_622 (and .def_552 .def_621)))
.def_622)))))))))))))))))))))))))))))))))))))))))))))))))))))))))))))))))))))))))))))))))))))))))))))))))))))))))))))))))))))))))))))))))))))))))))))))))))))))))))))))))))))))))))))))))))))))))))))))))))))))))))))))))))))))))))))))))))))))))))))))))))))))))))))))))))))))))))))))))))))))))))))))))))))))))))))))))))))))))))))))))))))))))))))))))))))))))))))))))))))))))))))))))))))))))))))))))))))))))))))))))))))))))))))))))))))))))))))))))))))))))))))))))))))))))))))))))))))))))))))))))))))))))))))))))))))))))))))))))))))))))))))))))))))))))))))))))))))))))))))))))
(check-sat)
(exit)
